(declare-fun var0 () String)
(assert (RegexIn var0 (RegexConcat (RegexStar (RegexUnion (Str2Reg "ii") (Str2Reg "jjj"))) (RegexConcat (RegexStar (RegexPlus (Str2Reg "hh"))) (RegexConcat (RegexUnion (RegexStar (Str2Reg "f")) (RegexPlus (Str2Reg "ggg"))) (RegexConcat (RegexPlus (RegexPlus (Str2Reg "ee"))) (RegexConcat (RegexUnion (RegexStar (Str2Reg "c")) (RegexPlus (Str2Reg "ddd"))) (RegexConcat (RegexUnion (RegexStar (Str2Reg "aa")) (RegexStar (Str2Reg "bbb"))) (RegexConcat (RegexStar (RegexPlus (Str2Reg "9"))) (RegexConcat (RegexPlus (RegexStar (Str2Reg "888"))) (RegexConcat (RegexUnion (RegexStar (Str2Reg "666")) (RegexPlus (Str2Reg "7"))) (RegexConcat (RegexPlus (RegexPlus (Str2Reg "5"))) (RegexConcat (RegexPlus (RegexStar (Str2Reg "444"))) (RegexConcat (RegexStar (RegexStar (Str2Reg "3"))) (RegexConcat (RegexPlus (RegexStar (Str2Reg "22"))) (RegexConcat (RegexStar (RegexPlus (Str2Reg "11"))) (RegexStar (RegexStar (Str2Reg "000")))))))))))))))))))
(check-sat)